
  32    4
  10   10   10   10

   0   0   0   0   0   3 2 4 7 
   3  10  10  10  10   1 3 
   2  10  10  10  10   3 8 6 5 
   1  10  10  10  10   7 26 23 14 13 12 10 8 
   2  10  10  10  10  11 25 23 21 20 17 14 13 12 11 10 9 
   5  10  10  10  10  11 26 25 21 20 19 17 16 14 12 11 9 
   4  10  10  10  10  10 25 23 20 19 16 15 14 11 10 9 
   3  10  10  10  10   8 25 22 21 19 18 15 11 9 
   7  10  10  10  10   3 31 27 24 
   4  10  10  10  10   3 31 27 24 
   1  10  10  10  10   4 31 30 29 27 
   3  10  10  10  10   4 31 30 29 27 
   4  10  10  10  10   4 31 30 29 27 
   4  10  10  10  10   2 27 24 
   1  10  10  10  10   2 27 24 
  10  10  10  10  10   2 27 24 
   8  10  10  10  10   2 27 24 
  10  10  10  10  10   2 27 24 
   7  10  10  10  10   2 31 24 
   5  10  10  10  10   2 28 24 
   4  10  10  10  10   3 31 29 28 
   6  10  10  10  10   3 30 29 28 
   8  10  10  10  10   2 29 27 
   8  10  10  10  10   2 30 29 
   3  10  10  10  10   2 31 28 
   9  10  10  10  10   2 31 28 
   3  10  10  10  10   1 28 
   4  10  10  10  10   1 32
   5  10  10  10  10   1 32
   3  10  10  10  10   1 32
   7  10  10  10  10   1 32
   0   0   0   0   0   0 
